Version identifier: 22.1.1.0 | 2022-11-28 | 9160aff4d
CPXPARAM_ClockType                               1
CPXPARAM_Read_DataCheck                          1
CPXPARAM_Threads                                 1
CPXPARAM_TimeLimit                               7200
CPXPARAM_MIP_Tolerances_AbsMIPGap                0
CPXPARAM_MIP_Tolerances_MIPGap                   0
CPXPARAM_MIP_Tolerances_Integrality              0
Tried aggregator 5 times.
MIP Presolve eliminated 26062 rows and 7446 columns.
MIP Presolve modified 1178 coefficients.
Aggregator did 2223 substitutions.
Reduced MIP has 9994 rows, 5691 columns, and 33596 nonzeros.
Reduced MIP has 5691 binaries, 0 generals, 0 SOSs, and 0 indicators.
Presolve time = 0.11 sec. (71.59 ticks)
Found incumbent of value 9.000000 after 0.17 sec. (111.28 ticks)
Probing time = 0.01 sec. (3.91 ticks)
Tried aggregator 1 time.
Detecting symmetries...
Reduced MIP has 9994 rows, 5691 columns, and 33596 nonzeros.
Reduced MIP has 5691 binaries, 0 generals, 0 SOSs, and 0 indicators.
Presolve time = 0.04 sec. (23.43 ticks)
Probing time = 0.02 sec. (3.77 ticks)
Clique table members: 17024.
MIP emphasis: balance optimality and feasibility.
MIP search method: dynamic search.
Parallel mode: none, using 1 thread.
Root relaxation solution time = 0.94 sec. (661.63 ticks)

        Nodes                                         Cuts/
   Node  Left     Objective  IInf  Best Integer    Best Bound    ItCnt     Gap

*     0+    0                            9.0000    31350.0000              --- 
      0     0     4750.0000  1750        9.0000     4750.0000     3213     --- 
*     0+    0                         1710.0000     4750.0000           177.78%
      0     0     4750.0000  1327     1710.0000     Cuts: 742    11764  177.78%
*     0+    0                         4750.0000     4750.0000             0.00%
      0     0        cutoff           4750.0000     4750.0000    11764    0.00%
Elapsed time = 8.26 sec. (6839.50 ticks, tree = 0.01 MB, solutions = 3)

Clique cuts applied:  346
Implied bound cuts applied:  13
Zero-half cuts applied:  11
Gomory fractional cuts applied:  1

Root node processing (before b&c):
  Real time             =    8.26 sec. (6840.33 ticks)
Sequential b&c:
  Real time             =    0.00 sec. (0.00 ticks)
                          ------------
Total (root+branch&cut) =    8.26 sec. (6840.33 ticks)
Solution is feasible.

---------------------
@@@ MIP_optimal
>>> Benchmark mc2024_track1_180.cnf k 10 OPT 4750 TimeCost 16.219085216522217 TimeSolve 8.354516744613647 TimeRead 0.005867481231689453 TimeTrans 7.85870099067688
